12      4       
10      10      10      10      
0       0       0       0       0       2       2       3       
9       5       10      3       9       2       5       8       
1       2       0       3       0       1       4       
5       9       10      8       3       2       5       8       
9       6       10      6       6       1       6       
4       0       8       8       0       1       7       
7       2       8       3       10      3       9       10      11      
5       4       0       10      10      1       12      
10      7       0       9       4       1       12      
4       0       0       0       5       1       12      
5       10      8       0       7       1       12      
0       0       0       0       0       0       
